SECTION Graph
Nodes 528
Edges 1017
E 1 5 7
E 1 434 6
E 1 436 1
E 1 438 3
E 2 440 9
E 2 443 3
E 3 10 7
E 3 418 6
E 3 421 1
E 3 431 10
E 4 431 3
E 4 435 7
E 5 441 1
E 5 442 3
E 6 442 7
E 6 443 7
E 7 17 5
E 7 432 3
E 7 434 1
E 7 436 6
E 8 9 10
E 8 10 7
E 8 432 1
E 8 434 3
E 9 11 7
E 9 439 3
E 9 440 3
E 10 11 10
E 10 426 1
E 11 431 7
E 11 435 3
E 12 20 5
E 12 411 3
E 12 418 1
E 12 421 6
E 13 14 10
E 13 411 1
E 13 418 3
E 14 424 3
E 15 16 10
E 15 25 7
E 15 416 3
E 15 422 3
E 16 26 7
E 16 428 1
E 16 430 3
E 17 428 3
E 17 430 1
E 17 433 6
E 18 19 10
E 18 394 3
E 18 401 3
E 19 406 1
E 19 409 3
E 20 406 3
E 20 409 1
E 20 417 6
E 21 22 10
E 21 425 7
E 21 429 3
E 22 24 7
E 22 437 1
E 23 30 3
E 23 420 6
E 23 425 3
E 23 429 7
E 24 425 10
E 24 430 6
E 24 433 1
E 25 26 10
E 25 404 7
E 25 408 3
E 26 28 7
E 26 423 1
E 27 32 3
E 27 399 6
E 27 404 3
E 27 408 7
E 28 404 10
E 28 409 6
E 28 417 1
E 29 33 7
E 29 403 6
E 29 407 1
E 29 419 10
E 30 415 6
E 30 419 3
E 30 427 7
E 31 38 7
E 31 382 6
E 31 385 1
E 31 398 10
E 32 393 6
E 32 398 3
E 32 405 7
E 33 34 10
E 33 414 1
E 34 419 7
E 34 427 3
E 35 45 5
E 35 400 3
E 35 403 1
E 35 407 6
E 36 37 10
E 36 38 7
E 36 400 1
E 36 403 3
E 37 39 7
E 37 412 3
E 37 413 3
E 38 39 10
E 38 391 1
E 39 398 7
E 39 405 3
E 40 48 5
E 40 375 3
E 40 382 1
E 40 385 6
E 41 42 10
E 41 375 1
E 41 382 3
E 42 388 3
E 42 389 3
E 43 44 10
E 43 53 7
E 43 380 3
E 43 386 3
E 44 54 7
E 44 395 1
E 44 397 3
E 45 395 3
E 45 397 1
E 45 402 6
E 46 47 10
E 46 358 3
E 46 365 3
E 47 370 1
E 47 373 3
E 48 370 3
E 48 373 1
E 48 381 6
E 49 50 10
E 49 390 7
E 49 396 3
E 50 52 7
E 50 410 1
E 51 58 3
E 51 384 6
E 51 390 3
E 51 396 7
E 52 390 10
E 52 397 6
E 52 402 1
E 53 54 10
E 53 368 7
E 53 372 3
E 54 56 7
E 54 387 1
E 55 60 3
E 55 363 6
E 55 368 3
E 55 372 7
E 56 368 10
E 56 373 6
E 56 381 1
E 57 61 7
E 57 367 6
E 57 371 1
E 57 383 10
E 58 379 6
E 58 383 3
E 58 392 7
E 59 66 7
E 59 346 6
E 59 349 1
E 59 362 10
E 60 357 6
E 60 362 3
E 60 369 7
E 61 62 10
E 61 378 1
E 62 383 7
E 62 392 3
E 63 73 5
E 63 364 3
E 63 367 1
E 63 371 6
E 64 65 10
E 64 66 7
E 64 364 1
E 64 367 3
E 65 67 7
E 65 376 3
E 65 377 3
E 66 67 10
E 66 355 1
E 67 362 7
E 67 369 3
E 68 76 5
E 68 339 3
E 68 346 1
E 68 349 6
E 69 70 10
E 69 339 1
E 69 346 3
E 70 352 3
E 70 353 3
E 71 72 10
E 71 81 7
E 71 344 3
E 71 350 3
E 72 82 7
E 72 359 1
E 72 361 3
E 73 359 3
E 73 361 1
E 73 366 6
E 74 75 10
E 74 322 3
E 74 329 3
E 75 334 1
E 75 337 3
E 76 334 3
E 76 337 1
E 76 345 6
E 77 78 10
E 77 354 7
E 77 360 3
E 78 80 7
E 78 374 1
E 79 86 3
E 79 348 6
E 79 354 3
E 79 360 7
E 80 354 10
E 80 361 6
E 80 366 1
E 81 82 10
E 81 332 7
E 81 336 3
E 82 84 7
E 82 351 1
E 83 88 3
E 83 327 6
E 83 332 3
E 83 336 7
E 84 332 10
E 84 337 6
E 84 345 1
E 85 89 7
E 85 331 6
E 85 335 1
E 85 347 10
E 86 343 6
E 86 347 3
E 86 356 7
E 87 94 7
E 87 310 6
E 87 313 1
E 87 326 10
E 88 321 6
E 88 326 3
E 88 333 7
E 89 90 10
E 89 342 1
E 90 347 7
E 90 356 3
E 91 101 5
E 91 328 3
E 91 331 1
E 91 335 6
E 92 93 10
E 92 94 7
E 92 328 1
E 92 331 3
E 93 95 7
E 93 340 3
E 93 341 3
E 94 95 10
E 94 319 1
E 95 326 7
E 95 333 3
E 96 104 5
E 96 303 3
E 96 310 1
E 96 313 6
E 97 98 10
E 97 303 1
E 97 310 3
E 98 316 3
E 98 317 3
E 99 100 10
E 99 109 7
E 99 308 3
E 99 314 3
E 100 110 7
E 100 323 1
E 100 325 3
E 101 323 3
E 101 325 1
E 101 330 6
E 102 103 10
E 102 286 3
E 102 293 3
E 103 298 1
E 103 301 3
E 104 298 3
E 104 301 1
E 104 309 6
E 105 106 10
E 105 318 7
E 105 324 3
E 106 108 7
E 106 338 1
E 107 114 3
E 107 312 6
E 107 318 3
E 107 324 7
E 108 318 10
E 108 325 6
E 108 330 1
E 109 110 10
E 109 296 7
E 109 300 3
E 110 112 7
E 110 315 1
E 111 116 3
E 111 291 6
E 111 296 3
E 111 300 7
E 112 296 10
E 112 301 6
E 112 309 1
E 113 117 7
E 113 295 6
E 113 299 1
E 113 311 10
E 114 307 6
E 114 311 3
E 114 320 7
E 115 122 7
E 115 274 6
E 115 277 1
E 115 290 10
E 116 285 6
E 116 290 3
E 116 297 7
E 117 118 10
E 117 306 1
E 118 311 7
E 118 320 3
E 119 129 5
E 119 292 3
E 119 295 1
E 119 299 6
E 120 121 10
E 120 122 7
E 120 292 1
E 120 295 3
E 121 123 7
E 121 304 3
E 121 305 3
E 122 123 10
E 122 283 1
E 123 290 7
E 123 297 3
E 124 132 5
E 124 267 3
E 124 274 1
E 124 277 6
E 125 126 10
E 125 267 1
E 125 274 3
E 126 280 3
E 126 281 3
E 127 128 10
E 127 137 7
E 127 272 3
E 127 278 3
E 128 138 7
E 128 287 1
E 128 289 3
E 129 287 3
E 129 289 1
E 129 294 6
E 130 131 10
E 130 250 3
E 130 257 3
E 131 262 1
E 131 265 3
E 132 262 3
E 132 265 1
E 132 273 6
E 133 134 10
E 133 282 7
E 133 288 3
E 134 136 7
E 134 302 1
E 135 142 3
E 135 276 6
E 135 282 3
E 135 288 7
E 136 282 10
E 136 289 6
E 136 294 1
E 137 138 10
E 137 260 7
E 137 264 3
E 138 140 7
E 138 279 1
E 139 144 3
E 139 255 6
E 139 260 3
E 139 264 7
E 140 260 10
E 140 265 6
E 140 273 1
E 141 145 7
E 141 259 6
E 141 263 1
E 141 275 10
E 142 271 6
E 142 275 3
E 142 284 7
E 143 150 7
E 143 238 6
E 143 241 1
E 143 254 10
E 144 249 6
E 144 254 3
E 144 261 7
E 145 146 10
E 145 270 1
E 146 275 7
E 146 284 3
E 147 157 5
E 147 256 3
E 147 259 1
E 147 263 6
E 148 149 10
E 148 150 7
E 148 256 1
E 148 259 3
E 149 151 7
E 149 268 3
E 149 269 3
E 150 151 10
E 150 247 1
E 151 254 7
E 151 261 3
E 152 160 5
E 152 231 3
E 152 238 1
E 152 241 6
E 153 154 10
E 153 231 1
E 153 238 3
E 154 244 3
E 154 245 3
E 155 156 10
E 155 165 7
E 155 236 3
E 155 242 3
E 156 166 7
E 156 251 1
E 156 253 3
E 157 251 3
E 157 253 1
E 157 258 6
E 158 159 10
E 158 215 3
E 158 221 3
E 159 226 1
E 159 229 3
E 160 226 3
E 160 229 1
E 160 237 6
E 161 162 10
E 161 246 7
E 161 252 3
E 162 164 7
E 162 266 1
E 163 170 3
E 163 240 6
E 163 246 3
E 163 252 7
E 164 246 10
E 164 253 6
E 164 258 1
E 165 166 10
E 165 224 7
E 165 228 3
E 166 168 7
E 166 243 1
E 167 172 3
E 167 219 6
E 167 224 3
E 167 228 7
E 168 224 10
E 168 229 6
E 168 237 1
E 169 173 7
E 169 223 6
E 169 227 1
E 169 239 10
E 170 235 6
E 170 239 3
E 170 248 7
E 171 178 7
E 171 206 6
E 171 207 1
E 171 218 10
E 172 214 6
E 172 218 3
E 172 225 7
E 173 174 10
E 173 234 1
E 174 239 7
E 174 248 3
E 175 185 5
E 175 220 3
E 175 223 1
E 175 227 6
E 176 177 10
E 176 178 7
E 176 220 1
E 176 223 3
E 177 179 7
E 177 232 3
E 177 233 3
E 178 179 10
E 178 213 1
E 179 218 7
E 179 225 3
E 180 188 5
E 180 203 3
E 180 206 1
E 180 207 6
E 181 182 10
E 181 203 1
E 181 206 3
E 182 210 3
E 182 211 3
E 183 184 10
E 183 193 7
E 183 204 3
E 183 208 3
E 184 194 7
E 184 216 1
E 184 217 3
E 185 216 3
E 185 217 1
E 185 222 6
E 186 187 10
E 186 198 3
E 187 200 1
E 187 202 3
E 188 200 3
E 188 202 1
E 188 205 6
E 189 190 10
E 189 212 7
E 190 192 7
E 190 230 1
E 191 204 9
E 191 212 3
E 192 212 10
E 192 217 6
E 192 222 1
E 193 194 10
E 193 199 7
E 193 201 3
E 194 196 7
E 194 209 1
E 195 199 3
E 195 201 7
E 196 199 10
E 196 202 6
E 196 205 1
E 197 442 56
E 198 199 6
E 198 202 10
E 200 203 5
E 201 204 7
E 205 207 5
E 205 209 7
E 206 210 10
E 207 213 7
E 208 212 6
E 208 217 10
E 209 213 5
E 209 216 7
E 210 214 3
E 210 218 6
E 211 214 3
E 211 215 3
E 213 220 7
E 214 219 3
E 215 219 3
E 216 220 5
E 219 221 3
E 221 224 6
E 221 229 10
E 222 227 5
E 222 230 7
E 223 232 10
E 225 228 3
E 225 233 7
E 226 231 5
E 227 234 7
E 228 236 7
E 230 234 5
E 232 235 3
E 232 239 6
E 233 235 3
E 233 236 3
E 235 240 3
E 236 240 3
E 237 241 5
E 237 243 7
E 238 244 10
E 240 242 3
E 241 247 7
E 242 246 6
E 242 253 10
E 243 247 5
E 243 251 7
E 244 249 3
E 244 254 6
E 245 249 3
E 245 250 3
E 247 256 7
E 248 252 3
E 249 255 3
E 250 255 3
E 251 256 5
E 255 257 3
E 257 260 6
E 257 265 10
E 258 263 5
E 258 266 7
E 259 268 10
E 261 264 3
E 261 269 7
E 262 267 5
E 263 270 7
E 264 272 7
E 266 270 5
E 268 271 3
E 268 275 6
E 269 271 3
E 269 272 3
E 271 276 3
E 272 276 3
E 273 277 5
E 273 279 7
E 274 280 10
E 276 278 3
E 277 283 7
E 278 282 6
E 278 289 10
E 279 283 5
E 279 287 7
E 280 285 3
E 280 290 6
E 281 285 3
E 281 286 3
E 283 292 7
E 284 288 3
E 285 291 3
E 286 291 3
E 287 292 5
E 291 293 3
E 293 296 6
E 293 301 10
E 294 299 5
E 294 302 7
E 295 304 10
E 297 300 3
E 297 305 7
E 298 303 5
E 299 306 7
E 300 308 7
E 302 306 5
E 304 307 3
E 304 311 6
E 305 307 3
E 305 308 3
E 307 312 3
E 308 312 3
E 309 313 5
E 309 315 7
E 310 316 10
E 312 314 3
E 313 319 7
E 314 318 6
E 314 325 10
E 315 319 5
E 315 323 7
E 316 321 3
E 316 326 6
E 317 321 3
E 317 322 3
E 319 328 7
E 320 324 3
E 321 327 3
E 322 327 3
E 323 328 5
E 327 329 3
E 329 332 6
E 329 337 10
E 330 335 5
E 330 338 7
E 331 340 10
E 333 336 3
E 333 341 7
E 334 339 5
E 335 342 7
E 336 344 7
E 338 342 5
E 340 343 3
E 340 347 6
E 341 343 3
E 341 344 3
E 343 348 3
E 344 348 3
E 345 349 5
E 345 351 7
E 346 352 10
E 348 350 3
E 349 355 7
E 350 354 6
E 350 361 10
E 351 355 5
E 351 359 7
E 352 357 3
E 352 362 6
E 353 357 3
E 353 358 3
E 355 364 7
E 356 360 3
E 357 363 3
E 358 363 3
E 359 364 5
E 363 365 3
E 365 368 6
E 365 373 10
E 366 371 5
E 366 374 7
E 367 376 10
E 369 372 3
E 369 377 7
E 370 375 5
E 371 378 7
E 372 380 7
E 374 378 5
E 376 379 3
E 376 383 6
E 377 379 3
E 377 380 3
E 379 384 3
E 380 384 3
E 381 385 5
E 381 387 7
E 382 388 10
E 384 386 3
E 385 391 7
E 386 390 6
E 386 397 10
E 387 391 5
E 387 395 7
E 388 393 3
E 388 398 6
E 389 393 3
E 389 394 3
E 391 400 7
E 392 396 3
E 393 399 3
E 394 399 3
E 395 400 5
E 399 401 3
E 401 404 6
E 401 409 10
E 402 407 5
E 402 410 7
E 403 412 10
E 405 408 3
E 405 413 7
E 406 411 5
E 407 414 7
E 408 416 7
E 410 414 5
E 412 415 3
E 412 419 6
E 413 415 3
E 413 416 3
E 415 420 3
E 416 420 3
E 417 421 5
E 417 423 7
E 418 424 10
E 420 422 3
E 421 426 7
E 422 425 6
E 422 430 10
E 423 426 5
E 423 428 7
E 424 431 6
E 426 432 7
E 427 429 3
E 428 432 5
E 433 436 5
E 433 437 7
E 434 439 10
E 435 440 7
E 436 441 7
E 437 441 5
E 438 442 7
E 438 443 7
E 439 443 6
E 1 444 100000
E 2 444 100000
E 3 445 100000
E 4 445 100000
E 5 446 100000
E 6 446 100000
E 7 447 100000
E 8 447 100000
E 9 447 100000
E 10 448 100000
E 11 448 100000
E 12 449 100000
E 13 449 100000
E 14 449 100000
E 15 450 100000
E 16 450 100000
E 17 450 100000
E 18 451 100000
E 19 451 100000
E 20 451 100000
E 21 452 100000
E 22 452 100000
E 23 453 100000
E 24 453 100000
E 25 454 100000
E 26 454 100000
E 27 455 100000
E 28 455 100000
E 29 456 100000
E 30 456 100000
E 31 457 100000
E 32 457 100000
E 33 458 100000
E 34 458 100000
E 35 459 100000
E 36 459 100000
E 37 459 100000
E 38 460 100000
E 39 460 100000
E 40 461 100000
E 41 461 100000
E 42 461 100000
E 43 462 100000
E 44 462 100000
E 45 462 100000
E 46 463 100000
E 47 463 100000
E 48 463 100000
E 49 464 100000
E 50 464 100000
E 51 465 100000
E 52 465 100000
E 53 466 100000
E 54 466 100000
E 55 467 100000
E 56 467 100000
E 57 468 100000
E 58 468 100000
E 59 469 100000
E 60 469 100000
E 61 470 100000
E 62 470 100000
E 63 471 100000
E 64 471 100000
E 65 471 100000
E 66 472 100000
E 67 472 100000
E 68 473 100000
E 69 473 100000
E 70 473 100000
E 71 474 100000
E 72 474 100000
E 73 474 100000
E 74 475 100000
E 75 475 100000
E 76 475 100000
E 77 476 100000
E 78 476 100000
E 79 477 100000
E 80 477 100000
E 81 478 100000
E 82 478 100000
E 83 479 100000
E 84 479 100000
E 85 480 100000
E 86 480 100000
E 87 481 100000
E 88 481 100000
E 89 482 100000
E 90 482 100000
E 91 483 100000
E 92 483 100000
E 93 483 100000
E 94 484 100000
E 95 484 100000
E 96 485 100000
E 97 485 100000
E 98 485 100000
E 99 486 100000
E 100 486 100000
E 101 486 100000
E 102 487 100000
E 103 487 100000
E 104 487 100000
E 105 488 100000
E 106 488 100000
E 107 489 100000
E 108 489 100000
E 109 490 100000
E 110 490 100000
E 111 491 100000
E 112 491 100000
E 113 492 100000
E 114 492 100000
E 115 493 100000
E 116 493 100000
E 117 494 100000
E 118 494 100000
E 119 495 100000
E 120 495 100000
E 121 495 100000
E 122 496 100000
E 123 496 100000
E 124 497 100000
E 125 497 100000
E 126 497 100000
E 127 498 100000
E 128 498 100000
E 129 498 100000
E 130 499 100000
E 131 499 100000
E 132 499 100000
E 133 500 100000
E 134 500 100000
E 135 501 100000
E 136 501 100000
E 137 502 100000
E 138 502 100000
E 139 503 100000
E 140 503 100000
E 141 504 100000
E 142 504 100000
E 143 505 100000
E 144 505 100000
E 145 506 100000
E 146 506 100000
E 147 507 100000
E 148 507 100000
E 149 507 100000
E 150 508 100000
E 151 508 100000
E 152 509 100000
E 153 509 100000
E 154 509 100000
E 155 510 100000
E 156 510 100000
E 157 510 100000
E 158 511 100000
E 159 511 100000
E 160 511 100000
E 161 512 100000
E 162 512 100000
E 163 513 100000
E 164 513 100000
E 165 514 100000
E 166 514 100000
E 167 515 100000
E 168 515 100000
E 169 516 100000
E 170 516 100000
E 171 517 100000
E 172 517 100000
E 173 518 100000
E 174 518 100000
E 175 519 100000
E 176 519 100000
E 177 519 100000
E 178 520 100000
E 179 520 100000
E 180 521 100000
E 181 521 100000
E 182 521 100000
E 183 522 100000
E 184 522 100000
E 185 522 100000
E 186 523 100000
E 187 523 100000
E 188 523 100000
E 189 524 100000
E 190 524 100000
E 191 525 100000
E 192 525 100000
E 193 526 100000
E 194 526 100000
E 195 527 100000
E 196 527 100000
E 197 528 100000
END

SECTION Terminals
Terminals 85
T 444
T 445
T 446
T 447
T 448
T 449
T 450
T 451
T 452
T 453
T 454
T 455
T 456
T 457
T 458
T 459
T 460
T 461
T 462
T 463
T 464
T 465
T 466
T 467
T 468
T 469
T 470
T 471
T 472
T 473
T 474
T 475
T 476
T 477
T 478
T 479
T 480
T 481
T 482
T 483
T 484
T 485
T 486
T 487
T 488
T 489
T 490
T 491
T 492
T 493
T 494
T 495
T 496
T 497
T 498
T 499
T 500
T 501
T 502
T 503
T 504
T 505
T 506
T 507
T 508
T 509
T 510
T 511
T 512
T 513
T 514
T 515
T 516
T 517
T 518
T 519
T 520
T 521
T 522
T 523
T 524
T 525
T 526
T 527
T 528
END

SECTION Tree Decomposition
s td 446 10 528
b 1 10 11 448
b 2 21 22 452
b 3 25 26 454
b 4 33 34 458
b 5 38 39 460
b 6 49 50 464
b 7 53 54 466
b 8 61 62 470
b 9 66 67 472
b 10 77 78 476
b 11 81 82 478
b 12 89 90 482
b 13 94 95 484
b 14 105 106 488
b 15 109 110 490
b 16 117 118 494
b 17 122 123 496
b 18 133 134 500
b 19 137 138 502
b 20 145 146 506
b 21 150 151 508
b 22 161 162 512
b 23 165 166 514
b 24 173 174 518
b 25 178 179 520
b 26 189 190 524
b 27 193 194 526
b 28 197 528
b 29 197 442
b 30 189 190 212
b 31 1 2 444
b 32 3 4 445
b 33 5 6 446
b 34 23 24 453
b 35 27 28 455
b 36 29 30 456
b 37 31 32 457
b 38 51 52 465
b 39 55 56 467
b 40 57 58 468
b 41 59 60 469
b 42 79 80 477
b 43 83 84 479
b 44 85 86 480
b 45 87 88 481
b 46 107 108 489
b 47 111 112 491
b 48 113 114 492
b 49 115 116 493
b 50 135 136 501
b 51 139 140 503
b 52 141 142 504
b 53 143 144 505
b 54 163 164 513
b 55 167 168 515
b 56 169 170 516
b 57 171 172 517
b 58 191 192 525
b 59 195 196 527
b 60 3 4 431 435
b 61 5 6 442 443
b 62 5 438 442 443
b 63 1 5 438 443
b 64 1 2 7 18 26 28 401 428 434 443
b 65 2 7 9 18 26 28 401 428 434 443
b 66 2 7 8 9 18 26 28 401 428 434
b 67 2 7 8 9 18 26 28 401 426 428
b 68 2 8 9 18 26 28 401 423 426 428
b 69 2 8 9 18 28 401 417 423 426
b 70 2 8 9 18 28 401 409 417 426
b 71 2 8 9 10 18 409 417 426
b 72 2 9 10 18 409 417 421 426
b 73 2 9 10 18 20 409 417 421
b 74 2 9 10 18 20 409 411 421
b 75 2 9 10 20 411 421 435
b 76 9 10 20 411 421 431 435
b 77 10 20 411 418 421 431 435
b 78 3 10 418 421 431 435
b 79 12 20 411 418 421 431
b 80 12 411 418 424 431
b 81 12 13 411 418 424
b 82 12 13 424 449
b 83 9 10 11 431 435
b 84 2 9 435 440
b 85 18 19 20 409 411
b 86 19 20 406 411
b 87 7 8 426 428 432
b 88 9 434 439 443
b 89 1 7 18 22 26 28 401 428 433 443
b 90 1 7 22 433 441 443
b 91 1 5 441 443
b 92 1 7 433 436 441
b 93 22 433 437 441
b 94 7 15 18 22 26 28 401 428 430 433
b 95 7 15 17 26 428 430 433
b 96 15 16 17 26 428 430
b 97 15 18 22 26 27 28 401 408 430 433
b 98 15 18 22 27 42 393 401 408 430 433
b 99 15 22 27 42 393 408 416 422 430 433
b 100 22 24 27 42 393 408 416 422 430 433
b 101 22 23 24 27 42 393 408 416 422 427
b 102 22 23 24 422 425 427
b 103 22 23 425 427 429
b 104 21 22 425 429
b 105 23 27 30 34 42 393 408 416 422 427
b 106 23 27 30 34 42 393 408 415 416 422
b 107 27 30 32 34 42 393 408 415 416
b 108 30 32 34 37 39 42 393 408 415 416
b 109 29 30 32 34 37 39 42 393 403 415
b 110 29 32 34 35 36 37 39 42 393 403
b 111 29 32 34 35 36 39 42 50 393 402
b 112 31 32 35 36 39 42 50 382 393 402
b 113 31 35 36 39 42 50 382 391 402
b 114 31 36 38 39 391
b 115 31 35 36 42 45 50 52 382 391 402
b 116 31 35 36 42 45 50 52 382 391 395
b 117 31 42 45 50 52 382 385 391 395
b 118 42 45 47 48 50 52 382 385 391 395
b 119 42 47 48 375 382 385
b 120 40 42 48 375 382 385
b 121 40 41 42 375 382
b 122 47 48 370 375
b 123 45 47 48 50 52 54 56 385 391 395
b 124 43 45 47 48 50 52 54 56 386 395
b 125 43 44 45 52 54 386 395
b 126 44 45 52 386 397
b 127 43 47 48 50 52 54 56 358 365 386
b 128 46 47 48 358 365
b 129 43 50 52 54 55 56 358 365 372 386
b 130 43 50 51 52 55 358 365 372 386 392
b 131 50 51 52 386 390 392
b 132 49 50 51 390 392
b 133 49 51 392 396
b 134 43 51 55 358 365 372 377 379 386 392
b 135 51 55 60 67 358 365 372 377 379 392
b 136 51 55 60 67 357 358 365 377 379 392
b 137 51 57 60 67 357 358 377 379 383 392
b 138 51 57 58 379 383 392
b 139 57 60 61 67 357 358 377 379 383 392
b 140 57 60 61 67 357 358 376 377 379 383
b 141 57 60 61 63 64 67 357 358 376 377
b 142 57 60 61 63 64 67 70 357 358
b 143 57 59 60 61 63 64 67 70 346 357
b 144 57 59 61 63 64 67 70 346 355
b 145 59 64 66 67 355
b 146 57 59 61 63 64 70 78 346 355 366
b 147 59 63 64 70 73 78 80 346 355 366
b 148 59 63 64 70 73 78 80 346 355 359
b 149 59 70 73 78 80 346 349 355 359
b 150 70 73 75 76 78 80 346 349 355 359
b 151 68 70 75 76 346 349
b 152 68 69 70 75 76 346
b 153 68 69 75 76 339
b 154 75 76 334 339
b 155 73 75 76 78 80 82 84 349 355 359
b 156 71 73 75 76 78 80 82 84 350 359
b 157 71 72 73 80 82 350 359
b 158 72 73 80 350 361
b 159 71 74 75 76 78 80 82 84 329 350
b 160 71 74 78 80 82 83 84 329 336 350
b 161 71 74 78 80 83 98 321 329 336 350
b 162 71 78 79 80 83 98 321 336 350 356
b 163 78 79 80 350 354 356
b 164 78 79 354 356 360
b 165 77 78 354 360
b 166 71 79 83 98 321 336 341 343 350 356
b 167 79 83 88 98 321 336 341 343 356
b 168 79 88 95 98 321 336 341 343 356
b 169 79 87 88 95 98 310 321 341 343 356
b 170 79 85 87 95 98 310 341 343 347 356
b 171 79 85 86 343 347 356
b 172 85 87 89 95 98 310 341 343 347 356
b 173 89 90 347 356
b 174 85 87 89 95 98 310 340 341 343 347
b 175 85 87 89 91 92 95 98 310 340 341
b 176 91 92 93 95 340 341
b 177 85 87 89 91 92 95 98 310 319
b 178 87 92 94 95 319
b 179 85 87 89 91 92 98 310 313 319
b 180 85 89 91 92 98 103 104 310 313 319
b 181 98 103 104 298 310 313
b 182 96 98 104 298 310 313
b 183 96 97 98 298 310
b 184 96 97 298 303
b 185 85 89 91 92 103 104 106 313 319 330
b 186 91 92 101 103 104 106 108 313 319 330
b 187 91 92 101 103 104 106 108 313 319 323
b 188 101 103 104 106 108 110 112 313 319 323
b 189 99 101 103 104 106 108 110 112 314 323
b 190 99 101 108 110 314 323 325
b 191 99 100 101 110 323 325
b 192 99 102 103 104 106 108 110 112 293 314
b 193 99 102 106 108 110 111 112 293 300 314
b 194 99 102 106 107 108 111 293 300 314 320
b 195 106 107 108 314 318 320
b 196 106 107 318 320 324
b 197 105 106 318 324
b 198 99 102 107 111 293 300 305 307 314 320
b 199 102 107 111 126 285 293 300 305 307 320
b 200 107 111 116 126 285 300 305 307 320
b 201 107 116 123 126 285 300 305 307 320
b 202 107 115 116 123 126 274 285 305 307 320
b 203 107 113 115 123 126 274 305 307 311 320
b 204 107 113 114 307 311 320
b 205 113 115 117 123 126 274 305 307 311 320
b 206 117 118 311 320
b 207 113 115 117 123 126 274 304 305 307 311
b 208 113 115 117 119 120 123 126 274 304 305
b 209 119 120 121 123 304 305
b 210 113 115 117 119 120 123 126 274 283
b 211 115 120 122 123 283
b 212 113 115 117 119 120 126 274 277 283
b 213 113 117 119 120 126 131 132 274 277 283
b 214 126 131 132 267 274 277
b 215 124 126 132 267 274 277
b 216 124 125 126 267 274
b 217 131 132 262 267
b 218 113 117 119 120 131 132 134 277 283 294
b 219 119 120 129 131 132 134 136 277 283 294
b 220 119 120 129 131 132 134 136 277 283 287
b 221 129 131 132 134 136 138 140 277 283 287
b 222 127 129 131 132 134 136 138 140 278 287
b 223 127 129 136 138 278 287 289
b 224 127 128 129 138 287 289
b 225 127 130 131 132 134 136 138 140 257 278
b 226 127 130 134 136 138 139 140 257 264 278
b 227 127 130 134 136 139 154 249 257 264 278
b 228 127 134 135 136 139 154 249 264 278 284
b 229 133 134 135 136 278 284
b 230 133 135 136 278 282
b 231 133 135 284 288
b 232 127 135 139 154 249 264 269 271 278 284
b 233 135 139 144 154 249 264 269 271 284
b 234 135 144 151 154 249 264 269 271 284
b 235 135 143 144 151 154 238 249 269 271 284
b 236 135 141 143 151 154 238 269 271 275 284
b 237 135 141 142 271 275 284
b 238 141 143 151 154 238 269 270 271 275 284
b 239 141 146 270 275 284
b 240 141 145 146 270
b 241 141 143 151 154 238 268 269 270 271 275
b 242 141 143 147 148 151 154 238 268 269 270
b 243 147 148 149 151 268 269
b 244 141 143 147 148 151 154 238 247 270
b 245 143 148 150 151 247
b 246 141 143 147 148 154 238 241 247 270
b 247 141 147 148 154 159 160 238 241 247 270
b 248 154 159 160 231 238 241
b 249 152 154 160 231 238 241
b 250 152 153 154 231 238
b 251 159 160 226 231
b 252 141 147 148 159 160 241 247 251 270
b 253 141 147 159 160 166 168 241 247 251 270
b 254 141 147 159 160 166 168 251 258 270
b 255 147 155 159 160 166 168 251 253 258 270
b 256 147 155 157 166 251 253 258
b 257 155 156 157 166 251 253
b 258 155 159 160 161 164 166 168 253 258 270
b 259 155 159 160 161 163 164 166 168 240 253
b 260 155 159 160 161 163 166 168 170 174 240
b 261 155 159 160 166 168 170 174 215 221 240
b 262 158 159 160 215 221
b 263 155 166 167 168 170 174 215 221 228 240
b 264 155 166 167 168 221 224 228
b 265 155 165 166 224 228
b 266 155 167 170 174 215 221 228 233 240
b 267 167 170 172 174 179 215 221 228 233 240
b 268 167 170 172 174 179 215 221 232 233 240
b 269 167 170 172 174 179 215 219 221 232 233
b 270 170 172 174 175 176 179 215 219 232 233
b 271 169 170 172 174 175 176 179 215 219 232
b 272 169 172 174 175 176 179 211 215 219
b 273 169 172 174 175 176 179 210 211 219
b 274 169 171 172 174 175 176 179 210 211
b 275 169 171 174 175 176 179 210 211 213
b 276 169 171 174 175 176 210 211 213 216
b 277 169 171 174 175 210 211 213 216 234
b 278 169 173 174 234
b 279 169 171 175 210 211 213 216 222 234
b 280 171 175 210 211 213 216 222 230 234
b 281 171 175 185 210 211 213 216 222 230
b 282 171 185 192 210 211 213 216 222 230
b 283 171 185 192 210 211 212 213 216 230
b 284 171 182 185 192 210 211 212 213 216
b 285 171 182 185 192 206 210 212 213 216
b 286 171 182 185 192 206 207 212 213 216
b 287 182 185 192 206 207 209 212 213 216
b 288 182 184 185 192 206 207 209 212 216
b 289 182 183 184 185 192 206 207 209 212
b 290 182 183 184 192 201 206 207 209 212
b 291 182 183 184 193 201 206 207 209
b 292 182 184 193 196 201 206 207 209
b 293 182 193 196 198 201 206 207 209
b 294 182 188 196 198 206 207 209
b 295 182 188 196 198 200 206 207
b 296 180 182 188 200 206 207
b 297 180 181 182 200 206
b 298 180 181 200 203
b 299 187 188 196 198 200
b 300 187 188 196 198 202
b 301 187 188 198 523
b 302 188 196 205 207 209
b 303 193 196 198 199 201
b 304 184 193 194 196 209
b 305 183 192 201 204 212
b 306 183 184 185 192 208 212
b 307 184 185 192 208 217
b 308 169 175 222 227 234
b 309 175 176 213 216 220
b 310 171 176 178 179 213
b 311 171 172 179 210 218
b 312 172 210 211 214 219
b 313 169 175 176 223 232
b 314 169 170 174 232 239
b 315 175 176 177 179 232 233
b 316 170 232 233 235 240
b 317 172 179 225 228 233
b 318 155 228 233 236 240
b 319 159 160 168 221 229
b 320 161 163 170 174 248
b 321 161 163 248 252
b 322 155 161 163 164 240 246 253
b 323 155 240 242 246 253
b 324 161 164 258 266 270
b 325 161 162 164 266
b 326 141 147 258 263 270
b 327 160 166 168 237 241 247 251
b 328 166 237 243 247 251
b 329 147 148 247 251 256
b 330 141 147 148 259 268
b 331 143 144 151 154 238 244 249
b 332 143 144 151 244 254
b 333 144 151 261 264 269
b 334 127 135 264 269 271 272 278
b 335 135 271 272 276 278
b 336 130 139 154 249 250 257
b 337 154 245 249 250
b 338 139 249 250 255 257
b 339 127 138 139 140 257 260 264
b 340 127 137 138 260 264
b 341 131 132 140 257 265
b 342 132 138 140 273 277 283 287
b 343 138 273 279 283 287
b 344 119 120 283 287 292
b 345 113 117 119 134 294 306
b 346 113 119 294 299 306
b 347 134 294 302 306
b 348 113 119 120 295 304
b 349 115 116 123 126 274 280 285
b 350 115 116 123 280 290
b 351 116 123 297 300 305
b 352 102 111 126 285 291 293
b 353 102 126 281 285 291
b 354 102 281 286 291
b 355 99 107 300 305 307 312 314
b 356 99 300 305 308 312
b 357 99 110 111 112 293 296 300
b 358 99 109 110 296 300
b 359 103 104 112 293 301
b 360 104 110 112 313 315 319 323
b 361 104 112 309 313 315
b 362 91 92 319 323 328
b 363 85 89 91 106 330 342
b 364 85 91 330 335 342
b 365 106 330 338 342
b 366 85 91 92 331 340
b 367 87 88 95 98 310 321 326
b 368 98 310 316 321 326
b 369 88 95 333 336 341
b 370 71 79 336 341 343 344 350
b 371 79 343 344 348 350
b 372 74 83 98 321 322 329
b 373 98 317 321 322
b 374 83 321 322 327 329
b 375 71 81 82 83 84 329 336
b 376 81 83 84 329 332
b 377 75 76 84 329 337
b 378 76 82 84 345 349 355 359
b 379 82 345 351 355 359
b 380 63 64 355 359 364
b 381 57 61 63 78 366 378
b 382 57 63 366 371 378
b 383 78 366 374 378
b 384 59 60 67 70 346 352 357
b 385 59 60 67 352 362
b 386 70 353 357 358
b 387 63 64 65 67 376 377
b 388 57 63 64 367 376
b 389 61 62 383 392
b 390 55 357 358 363 365
b 391 60 67 369 372 377
b 392 43 51 372 377 379 384 386
b 393 43 372 377 380 384
b 394 43 54 55 56 365 368 372
b 395 43 53 54 368 372
b 396 47 48 56 365 373
b 397 48 54 56 381 385 391 395
b 398 54 381 387 391 395
b 399 35 36 391 395 400
b 400 31 32 39 42 382 388 393
b 401 31 32 39 388 398
b 402 29 34 35 50 402 414
b 403 29 33 34 414
b 404 29 35 402 407 414
b 405 50 402 410 414
b 406 29 30 34 37 403 412 415
b 407 29 30 34 412 419
b 408 32 37 39 408 413 415 416
b 409 32 39 405 408 413
b 410 23 415 416 420 422
b 411 18 27 42 393 394 401
b 412 42 389 393 394
b 413 27 393 394 399 401
b 414 15 25 26 27 28 401 408
b 415 25 27 28 401 404
b 416 13 14 424 449
b 417 186 187 198 523
b 418 190 192 212 230
b 419 191 192 204 212
b 420 195 196 199 201
b 421 7 8 9 447
b 422 15 16 17 450
b 423 18 19 20 451
b 424 35 36 37 459
b 425 40 41 42 461
b 426 43 44 45 462
b 427 46 47 48 463
b 428 63 64 65 471
b 429 68 69 70 473
b 430 71 72 73 474
b 431 74 75 76 475
b 432 91 92 93 483
b 433 96 97 98 485
b 434 99 100 101 486
b 435 102 103 104 487
b 436 119 120 121 495
b 437 124 125 126 497
b 438 127 128 129 498
b 439 130 131 132 499
b 440 147 148 149 507
b 441 152 153 154 509
b 442 155 156 157 510
b 443 158 159 160 511
b 444 175 176 177 519
b 445 180 181 182 521
b 446 183 184 185 522
1 83
2 104
3 414
4 403
5 114
6 132
7 395
8 389
9 145
10 165
11 375
12 173
13 178
14 197
15 358
16 206
17 211
18 229
19 340
20 240
21 245
22 325
23 265
24 278
25 310
26 30
27 304
28 29
29 62
30 418
31 64
32 60
33 61
34 101
35 97
36 109
37 112
38 130
39 129
40 138
41 143
42 162
43 160
44 171
45 169
46 194
47 193
48 204
49 202
50 228
51 226
52 237
53 235
54 259
55 263
56 271
57 274
58 419
59 420
60 78
61 62
62 63
63 91
64 65
64 89
65 66
65 88
66 421
66 67
67 68
67 87
68 69
69 70
70 71
71 72
72 73
73 74
74 75
74 85
75 76
75 84
76 77
76 83
77 78
77 79
79 80
80 81
81 82
82 416
85 423
85 86
89 90
89 94
90 91
90 92
90 93
94 95
94 97
95 96
96 422
97 98
97 414
98 99
98 411
99 100
100 101
101 102
101 105
102 103
103 104
105 106
106 107
106 410
107 108
108 109
108 408
109 110
109 406
110 424
110 111
111 112
111 402
112 113
112 400
113 114
113 115
115 116
116 117
116 399
117 118
118 119
118 123
119 120
119 122
120 121
121 425
123 124
123 397
124 125
124 127
125 426
125 126
127 128
127 129
127 396
128 427
129 130
129 394
130 131
130 134
131 132
132 133
134 135
134 392
135 136
135 391
136 137
136 390
137 138
137 139
139 140
139 389
140 141
141 142
141 387
141 388
142 143
142 386
143 144
143 384
144 145
144 146
146 147
146 381
147 148
148 149
148 380
149 150
150 151
150 155
151 152
152 429
152 153
153 154
155 156
155 378
156 157
156 159
157 430
157 158
159 431
159 160
159 377
160 161
160 375
161 162
161 372
162 163
162 166
163 164
164 165
166 167
166 370
167 168
168 169
168 369
169 170
169 367
170 171
170 172
172 173
172 174
174 175
175 176
175 177
175 366
176 432
177 178
177 179
179 180
180 181
180 185
181 182
182 183
183 433
183 184
185 186
185 363
186 187
187 188
187 362
188 189
188 360
189 190
189 192
190 191
191 434
192 435
192 193
192 359
193 194
193 357
194 195
194 198
195 196
196 197
198 199
198 355
199 200
199 352
200 201
201 202
201 351
202 203
202 349
203 204
203 205
205 206
205 207
207 208
208 209
208 210
208 348
209 436
210 211
210 212
212 213
213 214
213 218
214 215
214 217
215 216
216 437
218 219
218 345
219 220
220 221
220 344
221 222
221 342
222 223
222 225
223 224
224 438
225 439
225 226
225 341
226 227
226 339
227 228
227 336
228 229
228 232
229 230
229 231
232 233
232 334
233 234
234 235
234 333
235 236
235 331
236 237
236 238
238 239
238 241
239 240
241 242
242 243
242 244
242 330
243 440
244 245
244 246
246 247
247 248
247 252
248 249
248 251
249 250
250 441
252 253
252 329
253 254
253 327
254 255
254 326
255 256
255 258
256 257
257 442
258 259
258 324
259 260
259 322
260 261
260 320
261 262
261 263
261 319
262 443
263 264
263 266
264 265
266 267
266 318
267 268
267 317
268 269
268 316
269 270
270 271
270 315
271 272
271 313
271 314
272 273
273 274
273 312
274 275
274 311
275 276
275 310
276 277
276 309
277 278
277 279
279 280
279 308
280 281
281 282
282 283
283 418
283 284
284 285
285 286
286 287
287 288
288 289
289 446
289 290
289 306
290 291
290 305
291 292
292 293
292 304
293 294
293 303
294 295
294 302
295 296
295 299
296 297
297 445
297 298
299 300
299 301
301 417
303 420
305 419
306 307
315 444
320 321
322 323
324 325
327 328
331 332
334 335
336 337
336 338
339 340
342 343
345 346
345 347
349 350
352 353
353 354
355 356
357 358
360 361
363 364
363 365
367 368
370 371
372 373
372 374
375 376
378 379
381 382
381 383
384 385
387 428
392 393
394 395
397 398
400 401
402 403
402 404
402 405
406 407
408 409
411 412
411 413
414 415
END

EOF
